set VV := 0 1 2 3 4 5 6 ;
set VS := 0 1 2 3 4 5 6 7 8 9 10 11 12 13 14 15 16 17 18 ;
param cv := 
0 25
1 19
2 12
3 21
4 19
5 13
6 10
;
param cs := 
0 31
1 28
2 30
3 25
4 27
5 27
6 31
7 38
8 36
9 25
10 27
11 39
12 20
13 31
14 32
15 27
16 28
17 25
18 26
;
param bv:	 0 1 2 3 4 5 6 := 
		0 0 0 0 0 0 0 20 
		1 0 0 11 12 11 19 19 
		2 0 0 0 25 20 0 0 
		3 0 0 0 0 0 0 0 
		4 0 0 0 0 0 0 0 
		5 0 0 0 0 0 0 0 
		6 0 0 0 0 0 0 0 
;
param bs:	 0 1 2 3 4 5 6 7 8 9 10 11 12 13 14 15 16 17 18 := 
		0 0 0 0 0 0 0 0 0 0 22 0 20 0 22 39 0 0 0 0 
		1 0 0 0 0 22 34 0 0 29 0 0 0 0 31 0 0 0 0 0 
		2 0 0 0 0 0 0 0 0 34 0 0 0 0 0 0 0 0 0 0 
		3 0 0 0 0 0 0 0 0 0 0 32 0 28 0 0 0 0 0 0 
		4 0 22 0 0 0 0 0 0 24 0 39 0 33 0 0 22 0 0 0 
		5 0 34 0 0 0 0 0 0 0 0 0 0 0 0 0 0 32 27 30 
		6 0 0 0 0 0 0 0 34 0 0 0 0 27 0 0 23 0 0 0 
		7 0 0 0 0 0 0 34 0 0 0 27 0 0 0 0 0 0 33 0 
		8 0 29 34 0 24 0 0 0 0 0 34 0 0 0 39 35 0 0 0 
		9 22 0 0 0 0 0 0 0 0 0 0 36 0 0 0 0 0 0 0 
		10 0 0 0 32 39 0 0 27 34 0 0 0 0 0 0 0 0 0 0 
		11 20 0 0 0 0 0 0 0 0 36 0 0 0 0 0 0 0 0 0 
		12 0 0 0 28 33 0 27 0 0 0 0 0 0 0 0 22 0 0 0 
		13 22 31 0 0 0 0 0 0 0 0 0 0 0 0 0 22 0 0 0 
		14 39 0 0 0 0 0 0 0 39 0 0 0 0 0 0 0 0 0 0 
		15 0 0 0 0 22 0 23 0 35 0 0 0 22 22 0 0 0 0 0 
		16 0 0 0 0 0 32 0 0 0 0 0 0 0 0 0 0 0 0 0 
		17 0 0 0 0 0 27 0 33 0 0 0 0 0 0 0 0 0 0 0 
		18 0 0 0 0 0 30 0 0 0 0 0 0 0 0 0 0 0 0 0 
;
